c description: Tseitin formula on Random 4-regular graph of 8 vertices, with odd charge
c generator: CNFgen (0.9.0)
c copyright: (C) 2012-2020 Massimo Lauria <massimo.lauria@uniroma1.it>
c url: https://massimolauria.net/cnfgen
c command line: cnfgen tseitin 8
c
p cnf 16 64
1 2 3 -4 0
1 2 -3 4 0
1 -2 3 4 0
1 -2 -3 -4 0
-1 2 3 4 0
-1 2 -3 -4 0
-1 -2 3 -4 0
-1 -2 -3 4 0
1 5 6 -7 0
1 5 -6 7 0
1 -5 6 7 0
1 -5 -6 -7 0
-1 5 6 7 0
-1 5 -6 -7 0
-1 -5 6 -7 0
-1 -5 -6 7 0
5 8 9 -10 0
5 8 -9 10 0
5 -8 9 10 0
5 -8 -9 -10 0
-5 8 9 10 0
-5 8 -9 -10 0
-5 -8 9 -10 0
-5 -8 -9 10 0
2 6 11 -12 0
2 6 -11 12 0
2 -6 11 12 0
2 -6 -11 -12 0
-2 6 11 12 0
-2 6 -11 -12 0
-2 -6 11 -12 0
-2 -6 -11 12 0
3 8 13 -14 0
3 8 -13 14 0
3 -8 13 14 0
3 -8 -13 -14 0
-3 8 13 14 0
-3 8 -13 -14 0
-3 -8 13 -14 0
-3 -8 -13 14 0
4 9 11 -15 0
4 9 -11 15 0
4 -9 11 15 0
4 -9 -11 -15 0
-4 9 11 15 0
-4 9 -11 -15 0
-4 -9 11 -15 0
-4 -9 -11 15 0
12 13 15 -16 0
12 13 -15 16 0
12 -13 15 16 0
12 -13 -15 -16 0
-12 13 15 16 0
-12 13 -15 -16 0
-12 -13 15 -16 0
-12 -13 -15 16 0
7 10 14 16 0
7 10 -14 -16 0
7 -10 14 -16 0
7 -10 -14 16 0
-7 10 14 -16 0
-7 10 -14 16 0
-7 -10 14 16 0
-7 -10 -14 -16 0
